p edge 60 347
e 1 6
e 1 10
e 1 11
e 1 14
e 1 16
e 1 23
e 1 31
e 1 39
e 1 43
e 1 57
e 2 3
e 2 19
e 2 24
e 2 27
e 2 32
e 2 33
e 2 41
e 2 43
e 2 44
e 2 48
e 2 54
e 3 12
e 3 16
e 3 17
e 3 18
e 3 23
e 3 33
e 3 41
e 3 47
e 3 51
e 3 52
e 3 53
e 4 8
e 4 11
e 4 12
e 4 25
e 4 29
e 4 36
e 4 38
e 4 39
e 4 41
e 4 46
e 4 47
e 4 48
e 4 53
e 4 57
e 5 6
e 5 7
e 5 9
e 5 12
e 5 14
e 5 21
e 5 23
e 5 33
e 5 37
e 5 48
e 5 56
e 5 59
e 6 7
e 6 10
e 6 11
e 6 24
e 6 27
e 6 33
e 6 36
e 6 38
e 6 40
e 6 44
e 6 45
e 6 59
e 6 60
e 7 10
e 7 14
e 7 20
e 7 22
e 7 30
e 7 31
e 7 33
e 7 46
e 7 47
e 7 50
e 7 51
e 7 53
e 7 58
e 7 59
e 7 60
e 8 11
e 8 20
e 8 29
e 8 31
e 8 39
e 8 42
e 8 51
e 9 11
e 9 25
e 9 26
e 9 30
e 9 39
e 9 46
e 9 50
e 9 53
e 9 58
e 9 60
e 10 15
e 10 19
e 10 33
e 10 38
e 10 48
e 10 52
e 10 53
e 10 57
e 11 17
e 11 23
e 11 24
e 11 29
e 11 31
e 11 35
e 11 37
e 11 43
e 11 45
e 11 51
e 11 53
e 11 54
e 11 55
e 11 58
e 11 59
e 12 21
e 12 47
e 12 53
e 12 54
e 12 55
e 13 15
e 13 16
e 13 33
e 13 34
e 13 37
e 13 38
e 13 39
e 13 52
e 14 16
e 14 19
e 14 25
e 14 35
e 14 37
e 14 46
e 14 53
e 14 54
e 15 24
e 15 29
e 15 41
e 15 48
e 15 55
e 15 57
e 16 23
e 16 25
e 16 29
e 16 38
e 16 39
e 16 41
e 16 58
e 16 59
e 17 24
e 17 25
e 17 32
e 17 34
e 17 36
e 17 37
e 17 38
e 18 20
e 18 21
e 18 30
e 18 32
e 18 43
e 18 53
e 18 54
e 18 58
e 18 60
e 19 21
e 19 35
e 19 36
e 19 41
e 19 43
e 19 44
e 19 45
e 19 53
e 20 22
e 20 34
e 20 35
e 20 36
e 20 45
e 20 56
e 20 58
e 21 22
e 21 24
e 21 25
e 21 28
e 21 30
e 21 31
e 21 33
e 21 36
e 21 43
e 21 44
e 21 45
e 21 52
e 21 59
e 22 24
e 22 25
e 22 26
e 22 28
e 22 34
e 22 36
e 22 40
e 22 42
e 22 47
e 22 60
e 23 40
e 23 48
e 23 50
e 23 51
e 23 57
e 23 60
e 24 28
e 24 31
e 24 35
e 24 40
e 24 56
e 24 59
e 25 29
e 25 34
e 25 37
e 25 38
e 25 40
e 25 41
e 25 44
e 25 49
e 25 52
e 25 57
e 26 29
e 26 33
e 26 47
e 26 49
e 26 50
e 26 51
e 26 54
e 26 55
e 27 29
e 27 35
e 27 37
e 27 42
e 27 52
e 27 55
e 28 34
e 28 36
e 28 39
e 28 41
e 28 42
e 28 44
e 28 45
e 28 48
e 28 50
e 28 58
e 28 60
e 29 41
e 30 34
e 30 35
e 30 39
e 30 41
e 30 51
e 30 53
e 30 55
e 31 37
e 31 55
e 31 59
e 32 36
e 32 42
e 32 49
e 32 58
e 32 59
e 33 34
e 33 48
e 33 54
e 34 42
e 34 49
e 34 52
e 34 57
e 35 42
e 35 48
e 36 44
e 36 55
e 37 43
e 37 44
e 37 48
e 37 54
e 37 58
e 38 49
e 38 50
e 38 60
e 39 45
e 39 46
e 39 49
e 39 52
e 39 53
e 39 60
e 40 49
e 40 52
e 41 42
e 41 43
e 41 59
e 42 43
e 42 46
e 42 50
e 42 56
e 43 48
e 43 49
e 43 54
e 43 55
e 43 59
e 44 45
e 44 51
e 44 54
e 44 58
e 45 50
e 45 57
e 45 59
e 45 60
e 46 49
e 46 50
e 46 53
e 47 53
e 47 55
e 47 59
e 47 60
e 48 51
e 48 55
e 48 57
e 48 59
e 49 50
e 49 52
e 49 53
e 50 51
e 50 52
e 50 57
e 51 60
e 53 54
e 53 60
e 54 59
e 58 60